(benchmark random_random66_smt
:extrafuns ((x0 BitVec[24]))
:extrafuns ((x1 BitVec[24]))
:extrafuns ((x2 BitVec[24]))
:extrafuns ((x3 BitVec[24]))
:extrafuns ((x4 BitVec[24]))
:extrafuns ((x5 BitVec[24]))
:extrafuns ((x6 BitVec[24]))
:extrafuns ((x7 BitVec[24]))
:extrafuns ((x8 BitVec[24]))
:extrafuns ((x9 BitVec[24]))
:extrafuns ((x10 BitVec[24]))
:extrafuns ((x11 BitVec[24]))
:extrafuns ((x12 BitVec[24]))
:extrafuns ((x13 BitVec[24]))
:extrafuns ((x14 BitVec[24]))
:extrafuns ((x15 BitVec[24]))
:extrafuns ((x16 BitVec[24]))
:extrafuns ((x17 BitVec[24]))
:extrafuns ((x18 BitVec[24]))
:extrafuns ((x19 BitVec[24]))


:formula (and (not (= (bvadd (bvmul bv11734161[24] x0) 
                        (bvadd (bvmul bv16558492[24] x2) 
                        (bvadd (bvmul bv6799869[24] x4) 
                        (bvadd (bvmul bv3270946[24] x5) 
                        (bvadd (bvmul bv5209272[24] x6) 
                        (bvadd (bvmul bv1187027[24] x7) 
                        (bvadd (bvmul bv5668063[24] x8) 
                        (bvadd (bvmul bv10885450[24] x9) 
                        (bvadd (bvmul bv11582822[24] x10) 
                        (bvadd (bvmul bv2015533[24] x11) 
                        (bvadd (bvmul bv3652046[24] x12) 
                        (bvadd (bvmul bv14511326[24] x13) 
                        (bvadd (bvmul bv11842780[24] x14) 
                        (bvadd (bvmul bv716091[24] x16) 
                        (bvadd (bvmul bv6539399[24] x17) (bvmul bv6320676[24] x19))))))))))))))))
	              bv13276082[24]))
         (and (not (= (bvadd (bvmul bv13120546[24] x0) 
                        (bvadd (bvmul bv13107674[24] x1) 
                        (bvadd (bvmul bv14865312[24] x2) 
                        (bvadd (bvmul bv10052007[24] x4) 
                        (bvadd (bvmul bv12079942[24] x5) 
                        (bvadd (bvmul bv6885550[24] x7) 
                        (bvadd (bvmul bv2833441[24] x9) 
                        (bvadd (bvmul bv567553[24] x11) 
                        (bvadd (bvmul bv6368390[24] x15) 
                        (bvadd (bvmul bv704245[24] x18) (bvmul bv8378794[24] x19)))))))))))
	              bv10540973[24]))
         (and (not (= (bvadd (bvmul bv14839632[24] x4) 
                        (bvadd (bvmul bv9397725[24] x5) 
                        (bvadd (bvmul bv11689602[24] x6) 
                        (bvadd (bvmul bv4902649[24] x7) 
                        (bvadd (bvmul bv122150[24] x9) 
                        (bvadd (bvmul bv5198932[24] x12) 
                        (bvadd (bvmul bv11239217[24] x14) 
                        (bvadd (bvmul bv7761572[24] x17) (bvmul bv679384[24] x19)))))))))
	              bv9433864[24]))
         (and (not (= (bvadd (bvmul bv6717742[24] x0) 
                        (bvadd (bvmul bv15968943[24] x1) 
                        (bvadd (bvmul bv10037201[24] x2) 
                        (bvadd (bvmul bv8557898[24] x3) 
                        (bvadd (bvmul bv3470286[24] x5) 
                        (bvadd (bvmul bv13855476[24] x6) 
                        (bvadd (bvmul bv13977627[24] x8) 
                        (bvadd (bvmul bv4286660[24] x9) 
                        (bvadd (bvmul bv11838933[24] x11) 
                        (bvadd (bvmul bv16226155[24] x13) 
                        (bvadd (bvmul bv7412830[24] x14) 
                        (bvadd (bvmul bv5969367[24] x16) (bvmul bv14607641[24] x19)))))))))))))
	              bv1071612[24]))
         (and (not (= (bvadd (bvmul bv6778665[24] x0) 
                        (bvadd (bvmul bv11512753[24] x1) 
                        (bvadd (bvmul bv13766526[24] x2) 
                        (bvadd (bvmul bv766627[24] x5) 
                        (bvadd (bvmul bv14744255[24] x7) 
                        (bvadd (bvmul bv5876336[24] x9) 
                        (bvadd (bvmul bv11317469[24] x10) 
                        (bvadd (bvmul bv8302111[24] x11) 
                        (bvadd (bvmul bv10038008[24] x12) 
                        (bvadd (bvmul bv1199709[24] x13) 
                        (bvadd (bvmul bv14918828[24] x16) (bvmul bv678149[24] x19))))))))))))
	              bv13698699[24]))
         (and (not (= (bvadd (bvmul bv12190902[24] x0) 
                        (bvadd (bvmul bv7311351[24] x1) 
                        (bvadd (bvmul bv14287684[24] x2) 
                        (bvadd (bvmul bv4808329[24] x4) 
                        (bvadd (bvmul bv14612937[24] x5) 
                        (bvadd (bvmul bv3712059[24] x7) 
                        (bvadd (bvmul bv304445[24] x9) 
                        (bvadd (bvmul bv3716206[24] x10) 
                        (bvadd (bvmul bv11209988[24] x11) 
                        (bvadd (bvmul bv14005523[24] x14) 
                        (bvadd (bvmul bv2536626[24] x15) 
                        (bvadd (bvmul bv3214775[24] x17) (bvmul bv15405678[24] x19)))))))))))))
	              bv13327875[24]))
         (and (not (= (bvadd (bvmul bv14507732[24] x0) 
                        (bvadd (bvmul bv3276869[24] x1) 
                        (bvadd (bvmul bv15646674[24] x2) 
                        (bvadd (bvmul bv4098038[24] x4) 
                        (bvadd (bvmul bv8068188[24] x6) 
                        (bvadd (bvmul bv16228641[24] x7) 
                        (bvadd (bvmul bv9793881[24] x9) 
                        (bvadd (bvmul bv2199330[24] x10) 
                        (bvadd (bvmul bv14113092[24] x11) 
                        (bvadd (bvmul bv10588946[24] x12) 
                        (bvadd (bvmul bv3575982[24] x13) (bvmul bv3087278[24] x14))))))))))))
	              bv16223475[24]))
         (and (not (= (bvadd (bvmul bv4311512[24] x0) 
                        (bvadd (bvmul bv10904275[24] x1) 
                        (bvadd (bvmul bv15002313[24] x3) 
                        (bvadd (bvmul bv6293287[24] x5) 
                        (bvadd (bvmul bv14764637[24] x8) 
                        (bvadd (bvmul bv5188408[24] x12) 
                        (bvadd (bvmul bv5805008[24] x13) 
                        (bvadd (bvmul bv8148190[24] x16) 
                        (bvadd (bvmul bv9863933[24] x18) (bvmul bv829850[24] x19))))))))))
	              bv9310193[24]))
         (and (not (= (bvadd (bvmul bv11660748[24] x3) 
                        (bvadd (bvmul bv13419628[24] x4) 
                        (bvadd (bvmul bv12792222[24] x9) 
                        (bvadd (bvmul bv3867539[24] x11) 
                        (bvadd (bvmul bv9055948[24] x13) 
                        (bvadd (bvmul bv3703282[24] x16) 
                        (bvadd (bvmul bv5487836[24] x17) 
                        (bvadd (bvmul bv15083873[24] x18) (bvmul bv3794905[24] x19)))))))))
	              bv15913723[24]))
         (and (not (= (bvadd (bvmul bv6502475[24] x3) 
                        (bvadd (bvmul bv13076437[24] x4) 
                        (bvadd (bvmul bv15019084[24] x16) 
                        (bvadd (bvmul bv12358729[24] x18) (bvmul bv10961260[24] x19)))))
	              bv1069350[24]))
         (and (not (= (bvadd (bvmul bv16421120[24] x1) 
                        (bvadd (bvmul bv7528653[24] x3) 
                        (bvadd (bvmul bv12682298[24] x4) 
                        (bvadd (bvmul bv1291062[24] x7) 
                        (bvadd (bvmul bv13025439[24] x8) 
                        (bvadd (bvmul bv154301[24] x10) 
                        (bvadd (bvmul bv3200897[24] x16) (bvmul bv15650707[24] x18))))))))
	              bv9273095[24]))
         (and (not (= (bvadd (bvmul bv1499856[24] x0) 
                        (bvadd (bvmul bv2325456[24] x1) 
                        (bvadd (bvmul bv8672415[24] x4) 
                        (bvadd (bvmul bv10978159[24] x7) 
                        (bvadd (bvmul bv3445958[24] x9) 
                        (bvadd (bvmul bv3009002[24] x10) 
                        (bvadd (bvmul bv9699138[24] x12) 
                        (bvadd (bvmul bv13164621[24] x16) (bvmul bv12705169[24] x18)))))))))
	              bv14524951[24]))
         (and (not (= (bvadd (bvmul bv16024808[24] x1) 
                        (bvadd (bvmul bv391355[24] x3) 
                        (bvadd (bvmul bv9063771[24] x5) 
                        (bvadd (bvmul bv15485607[24] x6) 
                        (bvadd (bvmul bv15136741[24] x11) 
                        (bvadd (bvmul bv13240723[24] x13) 
                        (bvadd (bvmul bv16116846[24] x15) (bvmul bv4587483[24] x18))))))))
	              bv8432208[24]))
         (and (not (= (bvadd (bvmul bv3120544[24] x2) 
                        (bvadd (bvmul bv1241301[24] x4) 
                        (bvadd (bvmul bv10865656[24] x7) 
                        (bvadd (bvmul bv39254[24] x9) 
                        (bvadd (bvmul bv9210181[24] x10) 
                        (bvadd (bvmul bv13855138[24] x14) 
                        (bvadd (bvmul bv11707652[24] x16) 
                        (bvadd (bvmul bv2028405[24] x18) (bvmul bv16676627[24] x19)))))))))
	              bv6443605[24]))
         (and (not (= (bvadd (bvmul bv4388139[24] x2) 
                        (bvadd (bvmul bv10017071[24] x3) 
                        (bvadd (bvmul bv11818956[24] x5) 
                        (bvadd (bvmul bv4901231[24] x6) 
                        (bvadd (bvmul bv13701565[24] x8) 
                        (bvadd (bvmul bv5779052[24] x12) 
                        (bvadd (bvmul bv4643697[24] x13) 
                        (bvadd (bvmul bv14564628[24] x16) (bvmul bv16593034[24] x18)))))))))
	              bv11220970[24]))
         (and (not (= (bvadd (bvmul bv1668413[24] x1) 
                        (bvadd (bvmul bv15353212[24] x2) 
                        (bvadd (bvmul bv8105822[24] x3) 
                        (bvadd (bvmul bv11724136[24] x7) 
                        (bvadd (bvmul bv7239111[24] x8) 
                        (bvadd (bvmul bv15001615[24] x9) 
                        (bvadd (bvmul bv14783018[24] x10) 
                        (bvadd (bvmul bv12982920[24] x13) (bvmul bv12215334[24] x15)))))))))
	              bv3659135[24]))
         (and (not (= (bvadd (bvmul bv2871846[24] x2) 
                        (bvadd (bvmul bv14885462[24] x4) 
                        (bvadd (bvmul bv15212115[24] x5) 
                        (bvadd (bvmul bv10402610[24] x7) 
                        (bvadd (bvmul bv8495777[24] x8) 
                        (bvadd (bvmul bv6720178[24] x10) 
                        (bvadd (bvmul bv6532365[24] x11) 
                        (bvadd (bvmul bv12175188[24] x12) 
                        (bvadd (bvmul bv15188423[24] x14) 
                        (bvadd (bvmul bv6703226[24] x15) 
                        (bvadd (bvmul bv14361637[24] x16) 
                        (bvadd (bvmul bv16605539[24] x17) (bvmul bv6704216[24] x19)))))))))))))
	              bv15867766[24]))
         (and (not (= (bvadd (bvmul bv12290756[24] x1) 
                        (bvadd (bvmul bv7962109[24] x2) 
                        (bvadd (bvmul bv3800369[24] x3) 
                        (bvadd (bvmul bv5215560[24] x7) 
                        (bvadd (bvmul bv5841666[24] x8) 
                        (bvadd (bvmul bv3425352[24] x12) 
                        (bvadd (bvmul bv11043672[24] x13) 
                        (bvadd (bvmul bv15145252[24] x16) 
                        (bvadd (bvmul bv16388810[24] x18) (bvmul bv10855[24] x19))))))))))
	              bv15479362[24]))
         (and (not (= (bvadd (bvmul bv10992904[24] x1) 
                        (bvadd (bvmul bv2864609[24] x2) 
                        (bvadd (bvmul bv9292400[24] x5) 
                        (bvadd (bvmul bv14507961[24] x7) 
                        (bvadd (bvmul bv14965236[24] x9) 
                        (bvadd (bvmul bv7812083[24] x12) 
                        (bvadd (bvmul bv6504044[24] x15) 
                        (bvadd (bvmul bv6963737[24] x16) 
                        (bvadd (bvmul bv8649110[24] x17) (bvmul bv8659966[24] x19))))))))))
	              bv5277479[24]))
         (and (not (= (bvadd (bvmul bv3562465[24] x0) 
                        (bvadd (bvmul bv8565208[24] x1) 
                        (bvadd (bvmul bv16694608[24] x4) 
                        (bvadd (bvmul bv2107111[24] x5) 
                        (bvadd (bvmul bv11457662[24] x6) 
                        (bvadd (bvmul bv8920416[24] x9) 
                        (bvadd (bvmul bv3688954[24] x10) 
                        (bvadd (bvmul bv11526286[24] x11) 
                        (bvadd (bvmul bv8550985[24] x12) 
                        (bvadd (bvmul bv9757822[24] x15) 
                        (bvadd (bvmul bv5312839[24] x16) (bvmul bv10420338[24] x19))))))))))))
	              bv11435481[24]))
         (and (not (= (bvadd (bvmul bv2208331[24] x0) 
                        (bvadd (bvmul bv14093875[24] x2) 
                        (bvadd (bvmul bv16200986[24] x4) 
                        (bvadd (bvmul bv6148154[24] x5) 
                        (bvadd (bvmul bv12877873[24] x8) 
                        (bvadd (bvmul bv2705577[24] x9) 
                        (bvadd (bvmul bv6378108[24] x10) 
                        (bvadd (bvmul bv4606929[24] x11) 
                        (bvadd (bvmul bv1986929[24] x17) 
                        (bvadd (bvmul bv2470380[24] x18) (bvmul bv3789746[24] x19)))))))))))
	              bv12553869[24]))
         (and (not (= (bvadd (bvmul bv4875087[24] x0) 
                        (bvadd (bvmul bv11932260[24] x1) 
                        (bvadd (bvmul bv16186974[24] x4) 
                        (bvadd (bvmul bv15313488[24] x5) 
                        (bvadd (bvmul bv11414146[24] x7) 
                        (bvadd (bvmul bv12855505[24] x8) 
                        (bvadd (bvmul bv9562739[24] x12) 
                        (bvadd (bvmul bv15421456[24] x13) 
                        (bvadd (bvmul bv10863641[24] x14) 
                        (bvadd (bvmul bv3217906[24] x16) (bvmul bv7791554[24] x17)))))))))))
	              bv5629938[24]))
         (and (not (= (bvadd (bvmul bv15843212[24] x0) 
                        (bvadd (bvmul bv393107[24] x4) 
                        (bvadd (bvmul bv10677289[24] x5) 
                        (bvadd (bvmul bv5314221[24] x7) 
                        (bvadd (bvmul bv4635458[24] x8) 
                        (bvadd (bvmul bv15356826[24] x9) 
                        (bvadd (bvmul bv8084117[24] x10) 
                        (bvadd (bvmul bv14029876[24] x15) 
                        (bvadd (bvmul bv2327520[24] x16) (bvmul bv12573112[24] x19))))))))))
	              bv10345488[24]))
         (and (not (= (bvadd (bvmul bv11130472[24] x1) 
                        (bvadd (bvmul bv6494273[24] x3) 
                        (bvadd (bvmul bv394347[24] x5) 
                        (bvadd (bvmul bv1715666[24] x10) 
                        (bvadd (bvmul bv10281905[24] x13) 
                        (bvadd (bvmul bv16528143[24] x14) 
                        (bvadd (bvmul bv10063720[24] x15) 
                        (bvadd (bvmul bv8745608[24] x16) 
                        (bvadd (bvmul bv4028148[24] x17) 
                        (bvadd (bvmul bv4949198[24] x18) (bvmul bv7029432[24] x19)))))))))))
	              bv9389896[24]))
         (and (not (= (bvadd (bvmul bv1382689[24] x0) 
                        (bvadd (bvmul bv10376199[24] x1) 
                        (bvadd (bvmul bv13573933[24] x6) 
                        (bvadd (bvmul bv14325671[24] x7) 
                        (bvadd (bvmul bv16465225[24] x9) 
                        (bvadd (bvmul bv8718115[24] x10) 
                        (bvadd (bvmul bv7417436[24] x11) 
                        (bvadd (bvmul bv5014314[24] x12) 
                        (bvadd (bvmul bv13095182[24] x15) 
                        (bvadd (bvmul bv10443867[24] x16) 
                        (bvadd (bvmul bv696084[24] x18) (bvmul bv4010767[24] x19))))))))))))
	              bv2078773[24]))
         (and (not (= (bvadd (bvmul bv14386967[24] x0) 
                        (bvadd (bvmul bv12547674[24] x1) 
                        (bvadd (bvmul bv4084643[24] x6) 
                        (bvadd (bvmul bv14348043[24] x7) 
                        (bvadd (bvmul bv13293348[24] x11) 
                        (bvadd (bvmul bv1979669[24] x12) 
                        (bvadd (bvmul bv3453405[24] x13) 
                        (bvadd (bvmul bv10315257[24] x14) 
                        (bvadd (bvmul bv9406245[24] x15) 
                        (bvadd (bvmul bv5501799[24] x16) 
                        (bvadd (bvmul bv5462270[24] x17) 
                        (bvadd (bvmul bv12181103[24] x18) (bvmul bv7122318[24] x19)))))))))))))
	              bv5359624[24]))
         (and (not (= (bvadd (bvmul bv12428553[24] x0) 
                        (bvadd (bvmul bv14531506[24] x2) 
                        (bvadd (bvmul bv9321724[24] x8) 
                        (bvadd (bvmul bv7302497[24] x10) 
                        (bvadd (bvmul bv5450193[24] x13) 
                        (bvadd (bvmul bv11899457[24] x16) (bvmul bv8181552[24] x17)))))))
	              bv3585441[24]))
         (and (not (= (bvadd (bvmul bv12292345[24] x0) 
                        (bvadd (bvmul bv7889880[24] x1) 
                        (bvadd (bvmul bv7575374[24] x3) 
                        (bvadd (bvmul bv12864848[24] x6) 
                        (bvadd (bvmul bv16549[24] x9) 
                        (bvadd (bvmul bv8691113[24] x13) 
                        (bvadd (bvmul bv8230611[24] x16) (bvmul bv4130391[24] x17))))))))
	              bv4714904[24]))
         (and (not (= (bvadd (bvmul bv11626243[24] x0) 
                        (bvadd (bvmul bv12516913[24] x4) 
                        (bvadd (bvmul bv14302522[24] x9) 
                        (bvadd (bvmul bv14822902[24] x10) 
                        (bvadd (bvmul bv4664920[24] x12) 
                        (bvadd (bvmul bv5241083[24] x13) (bvmul bv14769430[24] x18)))))))
	              bv13620284[24]))
         (and (not (= (bvadd (bvmul bv1557974[24] x1) 
                        (bvadd (bvmul bv5523861[24] x2) 
                        (bvadd (bvmul bv9317956[24] x4) 
                        (bvadd (bvmul bv11251313[24] x5) 
                        (bvadd (bvmul bv16170687[24] x6) 
                        (bvadd (bvmul bv2522803[24] x7) 
                        (bvadd (bvmul bv10214295[24] x8) 
                        (bvadd (bvmul bv92806[24] x10) 
                        (bvadd (bvmul bv14815895[24] x11) 
                        (bvadd (bvmul bv3591408[24] x12) 
                        (bvadd (bvmul bv9142398[24] x13) 
                        (bvadd (bvmul bv1808215[24] x14) 
                        (bvadd (bvmul bv10002730[24] x18) (bvmul bv256120[24] x19))))))))))))))
	              bv4163901[24]))
         (and (not (= (bvadd (bvmul bv2519527[24] x3) 
                        (bvadd (bvmul bv8493824[24] x4) 
                        (bvadd (bvmul bv11016627[24] x6) 
                        (bvadd (bvmul bv3498468[24] x7) 
                        (bvadd (bvmul bv7392046[24] x8) 
                        (bvadd (bvmul bv5430727[24] x10) 
                        (bvadd (bvmul bv13386651[24] x11) (bvmul bv10714623[24] x17))))))))
	              bv9054487[24]))
         (and (not (= (bvadd (bvmul bv12918213[24] x1) 
                        (bvadd (bvmul bv15149826[24] x2) 
                        (bvadd (bvmul bv12438342[24] x3) 
                        (bvadd (bvmul bv1039289[24] x4) 
                        (bvadd (bvmul bv5806399[24] x5) 
                        (bvadd (bvmul bv11592413[24] x6) 
                        (bvadd (bvmul bv6723618[24] x7) 
                        (bvadd (bvmul bv16518860[24] x9) 
                        (bvadd (bvmul bv12102135[24] x12) 
                        (bvadd (bvmul bv3090746[24] x13) 
                        (bvadd (bvmul bv7853274[24] x17) 
                        (bvadd (bvmul bv4589195[24] x18) (bvmul bv4737571[24] x19)))))))))))))
	              bv730193[24]))
         (and (not (= (bvadd (bvmul bv2082458[24] x2) 
                        (bvadd (bvmul bv11092163[24] x3) 
                        (bvadd (bvmul bv4661594[24] x4) 
                        (bvadd (bvmul bv13966461[24] x6) 
                        (bvadd (bvmul bv13456244[24] x7) 
                        (bvadd (bvmul bv12836129[24] x8) 
                        (bvadd (bvmul bv16419138[24] x11) 
                        (bvadd (bvmul bv12277957[24] x12) 
                        (bvadd (bvmul bv13551145[24] x15) 
                        (bvadd (bvmul bv5939643[24] x16) (bvmul bv2093320[24] x19)))))))))))
	              bv11349841[24]))
         (and (not (= (bvadd (bvmul bv12146194[24] x0) 
                        (bvadd (bvmul bv12642593[24] x1) 
                        (bvadd (bvmul bv526972[24] x3) 
                        (bvadd (bvmul bv7560668[24] x4) 
                        (bvadd (bvmul bv9149276[24] x5) 
                        (bvadd (bvmul bv9480636[24] x9) 
                        (bvadd (bvmul bv8198624[24] x10) 
                        (bvadd (bvmul bv9437846[24] x12) (bvmul bv12512170[24] x16)))))))))
	              bv9668223[24]))
         (and (not (= (bvadd (bvmul bv3422354[24] x0) 
                        (bvadd (bvmul bv16064947[24] x2) 
                        (bvadd (bvmul bv8837023[24] x3) 
                        (bvadd (bvmul bv7553137[24] x4) 
                        (bvadd (bvmul bv14308140[24] x5) 
                        (bvadd (bvmul bv3860174[24] x6) 
                        (bvadd (bvmul bv14813169[24] x9) 
                        (bvadd (bvmul bv13276130[24] x13) 
                        (bvadd (bvmul bv2443033[24] x14) 
                        (bvadd (bvmul bv14955203[24] x16) (bvmul bv684637[24] x17)))))))))))
	              bv16554906[24]))
         (and (not (= (bvadd (bvmul bv7300246[24] x2) 
                        (bvadd (bvmul bv3983329[24] x6) 
                        (bvadd (bvmul bv7843504[24] x8) 
                        (bvadd (bvmul bv15546660[24] x9) 
                        (bvadd (bvmul bv14168744[24] x14) 
                        (bvadd (bvmul bv16611778[24] x16) (bvmul bv39436[24] x19)))))))
	              bv6841878[24]))
         (and (bvule      (bvadd (bvmul bv11429845[24] x3) 
                        (bvadd (bvmul bv6508254[24] x6) 
                        (bvadd (bvmul bv12899087[24] x9) 
                        (bvadd (bvmul bv2002163[24] x15) 
                        (bvadd (bvmul bv10758169[24] x16) 
                        (bvadd (bvmul bv16182848[24] x17) (bvmul bv5936689[24] x19)))))))
	              bv10131225[24])
         (and (bvule      (bvadd (bvmul bv5976125[24] x0) 
                        (bvadd (bvmul bv9192165[24] x2) 
                        (bvadd (bvmul bv3844795[24] x4) 
                        (bvadd (bvmul bv11597004[24] x5) 
                        (bvadd (bvmul bv3072999[24] x7) 
                        (bvadd (bvmul bv9183483[24] x8) 
                        (bvadd (bvmul bv11219697[24] x9) 
                        (bvadd (bvmul bv5295153[24] x10) 
                        (bvadd (bvmul bv15782393[24] x11) 
                        (bvadd (bvmul bv11367663[24] x13) 
                        (bvadd (bvmul bv13096695[24] x14) 
                        (bvadd (bvmul bv587525[24] x15) 
                        (bvadd (bvmul bv16709986[24] x16) 
                        (bvadd (bvmul bv9565762[24] x17) (bvmul bv9409283[24] x19)))))))))))))))
	              bv15101062[24])
         (and (bvule      (bvadd (bvmul bv14687819[24] x3) 
                        (bvadd (bvmul bv983603[24] x5) 
                        (bvadd (bvmul bv1011912[24] x6) 
                        (bvadd (bvmul bv5473628[24] x9) 
                        (bvadd (bvmul bv8106215[24] x11) 
                        (bvadd (bvmul bv5348896[24] x12) 
                        (bvadd (bvmul bv16122194[24] x14) (bvmul bv16026034[24] x17))))))))
	              bv10163459[24])
              (bvule      (bvadd (bvmul bv3510496[24] x0) 
                        (bvadd (bvmul bv13333979[24] x1) 
                        (bvadd (bvmul bv9280145[24] x4) 
                        (bvadd (bvmul bv12228188[24] x5) 
                        (bvadd (bvmul bv12406663[24] x7) 
                        (bvadd (bvmul bv8846484[24] x8) 
                        (bvadd (bvmul bv2827717[24] x10) 
                        (bvadd (bvmul bv15039438[24] x11) (bvmul bv10759819[24] x13)))))))))
	              bv11985993[24])
	 )))))))))))))))))))))))))))))))))))))))

)
